413.41
411.95
411.06
409.02
406.88
403.28
400.82
400.82
399.92
396.34
395.65
391.26
387.74
383.43
383.43
382.50
380.92
377.90
376.73
376.33
375.33
373.01
370.06
368.27
368.11
367.29
366.91
365.53
362.70
360.93
359.91
359.00
353.85
353.85
352.94
352.15
351.15
350.29
349.46
347.57
346.41
346.41
345.45
344.51
342.95
342.25
342.11
341.28
339.14
338.62
338.22
337.99
337.20
335.21
334.33
333.81
333.60
332.93
331.08
331.01
330.91
329.76
328.85
327.06
325.76
325.72
324.90
323.53
323.53
322.19
321.63
321.63
320.81
320.45
320.30
320.09
318.95
318.81
318.21
316.51
316.43
315.59
315.30
314.47
313.90
313.78
311.86
311.76
311.09
310.66
310.48
309.19
307.36
307.16
306.22
305.24
305.11
304.18
303.48
302.55
